p cnf 624 1814
r 0.5 1 2 3 4 5 6 7 8 9 10 11 12 13 14 15 16 17 18 19 20 0
e 21 22 23 24 25 26 27 28 29 30 31 32 33 34 35 36 37 38 39 40 41 42 43 44 45 46 47 48 49 50 51 52 53 54 55 56 57 58 59 60 61 62 63 64 65 66 67 68 69 70 71 72 73 74 75 76 77 78 79 80 81 82 83 84 85 86 87 88 89 90 91 92 93 94 95 96 97 98 99 100 101 102 103 104 105 106 107 108 109 110 111 112 113 114 115 116 117 118 119 120 121 122 123 124 125 126 127 128 129 130 131 132 133 134 135 136 137 138 139 140 141 142 143 144 145 146 147 148 149 150 151 152 153 154 155 156 157 158 159 160 161 162 163 164 165 166 167 168 169 170 171 172 173 174 175 176 177 178 179 180 181 182 183 184 185 186 187 188 189 190 191 192 193 194 195 196 197 198 199 200 201 202 203 204 205 206 207 208 209 210 211 212 213 214 215 216 217 218 219 220 221 222 223 224 225 226 227 228 229 230 231 232 233 234 235 236 237 238 239 240 241 242 243 244 245 246 247 248 249 250 251 252 253 254 255 256 257 258 259 260 261 262 263 264 265 266 267 268 269 270 271 272 273 274 275 276 277 278 279 280 281 282 283 284 285 286 287 288 289 290 291 292 293 294 295 296 297 298 299 300 301 302 303 304 305 306 307 308 309 310 311 312 313 314 315 316 317 318 319 320 321 322 323 324 325 326 327 328 329 330 331 332 333 334 335 336 337 338 339 340 341 342 343 344 345 346 347 348 349 350 351 352 353 354 355 356 357 358 359 360 361 362 363 364 365 366 367 368 369 370 371 372 373 374 375 376 377 378 379 380 381 382 383 384 385 386 387 388 389 390 391 392 393 394 395 396 397 398 399 400 401 402 403 404 405 406 407 408 409 410 411 412 413 414 415 416 417 418 419 420 421 422 423 424 425 426 427 428 429 430 431 432 433 434 435 436 437 438 439 440 441 442 443 444 445 446 447 448 449 450 451 452 453 454 455 456 457 458 459 460 461 462 463 464 465 466 467 468 469 470 471 472 473 474 475 476 477 478 479 480 481 482 483 484 485 486 487 488 489 490 491 492 493 494 495 496 497 498 499 500 501 502 503 504 505 506 507 508 509 510 511 512 513 514 515 516 517 518 519 520 521 522 523 524 525 526 527 528 529 530 531 532 533 534 535 536 537 538 539 540 541 542 543 544 545 546 547 548 549 550 551 552 553 554 555 556 557 558 559 560 561 562 563 564 565 566 567 568 569 570 571 572 573 574 575 576 577 578 579 580 581 582 583 584 585 586 587 588 589 590 591 592 593 594 595 596 597 598 599 600 601 602 603 604 605 606 607 608 609 610 611 612 613 614 615 616 617 618 619 620 621 622 623 624 0
-624 -21 1 0
-623 -22 2 0
-622 -23 3 0
-621 -24 4 0
-620 -25 5 0
-619 -26 6 0
-618 -27 7 0
-617 -28 8 0
-616 -29 9 0
-615 -30 10 0
-614 -31 11 0
-613 -32 12 0
-612 -33 13 0
-611 -34 14 0
-610 -35 15 0
-609 -36 16 0
-608 -37 17 0
-607 -38 18 0
-606 -39 19 0
-605 -40 20 0
-604 1 0
-604 -21 0
-603 21 0
-603 -1 0
-602 2 0
-602 -22 0
-601 22 0
-601 -2 0
-600 3 0
-600 -23 0
-599 23 0
-599 -3 0
-598 4 0
-598 -24 0
-597 24 0
-597 -4 0
-596 5 0
-596 -25 0
-595 25 0
-595 -5 0
-594 6 0
-594 -26 0
-593 26 0
-593 -6 0
-592 7 0
-592 -27 0
-591 27 0
-591 -7 0
-590 8 0
-590 -28 0
-589 28 0
-589 -8 0
-588 9 0
-588 -29 0
-587 29 0
-587 -9 0
-586 10 0
-586 -30 0
-585 30 0
-585 -10 0
-584 11 0
-584 -31 0
-583 31 0
-583 -11 0
-582 12 0
-582 -32 0
-581 32 0
-581 -12 0
-580 13 0
-580 -33 0
-579 33 0
-579 -13 0
-578 14 0
-578 -34 0
-577 34 0
-577 -14 0
-576 15 0
-576 -35 0
-575 35 0
-575 -15 0
-574 16 0
-574 -36 0
-573 36 0
-573 -16 0
-572 17 0
-572 -37 0
-571 37 0
-571 -17 0
-570 18 0
-570 -38 0
-569 38 0
-569 -18 0
-568 19 0
-568 -39 0
-567 39 0
-567 -19 0
-566 20 0
-566 -40 0
-565 40 0
-565 -20 0
-564 604 603 602 601 600 599 598 597 596 595 594 593 592 591 590 589 588 587 586 585 584 583 582 581 580 579 578 577 576 575 574 573 572 571 570 569 568 567 566 565 0
-563 11 0
-563 19 0
-563 8 0
-563 10 0
-563 -18 0
-562 12 0
-562 13 0
-562 10 0
-562 19 0
-562 -18 0
-561 5 0
-561 9 0
-561 11 0
-561 10 0
-561 -18 0
-560 1 0
-560 5 0
-560 2 0
-560 11 0
-560 -18 0
-559 4 0
-559 2 0
-559 7 0
-559 9 0
-559 -18 0
-558 4 0
-558 2 0
-558 20 0
-558 -18 0
-557 7 0
-557 11 0
-557 1 0
-557 15 0
-557 -18 0
-556 17 0
-556 15 0
-556 16 0
-556 5 0
-556 -18 0
-555 20 0
-555 4 0
-555 5 0
-555 16 0
-555 -18 0
-554 2 0
-554 20 0
-554 1 0
-554 -18 0
-553 9 0
-553 18 0
-553 11 0
-553 7 0
-553 -10 0
-552 2 0
-552 9 0
-552 11 0
-552 5 0
-552 -10 0
-551 11 0
-551 8 0
-551 -10 0
-550 19 0
-550 1 0
-550 3 0
-550 4 0
-550 -10 0
-549 13 0
-549 9 0
-549 1 0
-549 -10 0
-548 8 0
-548 13 0
-548 5 0
-548 2 0
-548 -10 0
-547 18 0
-547 8 0
-547 4 0
-547 20 0
-547 -10 0
-546 12 0
-546 8 0
-546 5 0
-546 6 0
-546 -10 0
-545 14 0
-545 19 0
-545 9 0
-545 20 0
-545 -10 0
-544 17 0
-544 19 0
-544 9 0
-544 -10 0
-543 17 0
-543 10 0
-543 2 0
-543 16 0
-543 -4 0
-542 3 0
-542 18 0
-542 5 0
-542 2 0
-542 -4 0
-541 15 0
-541 7 0
-541 18 0
-541 2 0
-541 -4 0
-540 17 0
-540 10 0
-540 5 0
-540 20 0
-540 -4 0
-539 8 0
-539 1 0
-539 18 0
-539 3 0
-539 -4 0
-538 12 0
-538 2 0
-538 9 0
-538 13 0
-538 -4 0
-537 16 0
-537 20 0
-537 3 0
-537 5 0
-537 -4 0
-536 17 0
-536 11 0
-536 20 0
-536 15 0
-536 -4 0
-535 14 0
-535 5 0
-535 15 0
-535 13 0
-535 -4 0
-534 12 0
-534 5 0
-534 19 0
-534 -4 0
-533 18 0
-533 6 0
-533 4 0
-533 19 0
-533 -20 0
-532 14 0
-532 1 0
-532 8 0
-532 18 0
-532 -20 0
-531 3 0
-531 17 0
-531 2 0
-531 -20 0
-530 3 0
-530 8 0
-530 16 0
-530 11 0
-530 -20 0
-529 15 0
-529 9 0
-529 18 0
-529 11 0
-529 -20 0
-528 2 0
-528 15 0
-528 18 0
-528 -20 0
-527 5 0
-527 2 0
-527 12 0
-527 10 0
-527 -20 0
-526 7 0
-526 16 0
-526 6 0
-526 15 0
-526 -20 0
-525 2 0
-525 3 0
-525 17 0
-525 -20 0
-524 4 0
-524 2 0
-524 -20 0
-523 15 0
-523 11 0
-523 5 0
-523 1 0
-523 -16 0
-522 7 0
-522 3 0
-522 13 0
-522 14 0
-522 -16 0
-521 10 0
-521 5 0
-521 15 0
-521 11 0
-521 -16 0
-520 4 0
-520 5 0
-520 11 0
-520 15 0
-520 -16 0
-519 3 0
-519 17 0
-519 15 0
-519 -16 0
-518 5 0
-518 3 0
-518 14 0
-518 8 0
-518 -16 0
-517 17 0
-517 18 0
-517 1 0
-517 13 0
-517 -16 0
-516 2 0
-516 19 0
-516 12 0
-516 -16 0
-515 8 0
-515 13 0
-515 1 0
-515 3 0
-515 -16 0
-514 19 0
-514 18 0
-514 17 0
-514 -16 0
-513 20 0
-513 14 0
-513 1 0
-513 19 0
-513 -8 0
-512 16 0
-512 13 0
-512 10 0
-512 4 0
-512 -8 0
-511 9 0
-511 18 0
-511 12 0
-511 10 0
-511 -8 0
-510 18 0
-510 5 0
-510 2 0
-510 4 0
-510 -8 0
-509 16 0
-509 14 0
-509 20 0
-509 -8 0
-508 17 0
-508 3 0
-508 14 0
-508 -8 0
-507 9 0
-507 16 0
-507 10 0
-507 3 0
-507 -8 0
-506 5 0
-506 13 0
-506 -8 0
-505 17 0
-505 9 0
-505 7 0
-505 19 0
-505 -8 0
-504 14 0
-504 4 0
-504 15 0
-504 10 0
-504 -8 0
-503 3 0
-503 11 0
-503 20 0
-503 12 0
-503 -19 0
-502 10 0
-502 8 0
-502 17 0
-502 -19 0
-501 14 0
-501 18 0
-501 13 0
-501 16 0
-501 -19 0
-500 14 0
-500 13 0
-500 12 0
-500 15 0
-500 -19 0
-499 8 0
-499 9 0
-499 5 0
-499 7 0
-499 -19 0
-498 7 0
-498 15 0
-498 10 0
-498 20 0
-498 -19 0
-497 3 0
-497 15 0
-497 11 0
-497 2 0
-497 -19 0
-496 5 0
-496 16 0
-496 7 0
-496 4 0
-496 -19 0
-495 15 0
-495 2 0
-495 3 0
-495 16 0
-495 -19 0
-494 7 0
-494 8 0
-494 9 0
-494 10 0
-494 -19 0
-493 19 0
-493 12 0
-493 15 0
-493 -1 0
-492 12 0
-492 17 0
-492 8 0
-492 4 0
-492 -1 0
-491 6 0
-491 4 0
-491 10 0
-491 19 0
-491 -1 0
-490 17 0
-490 2 0
-490 14 0
-490 -1 0
-489 5 0
-489 14 0
-489 8 0
-489 -1 0
-488 16 0
-488 7 0
-488 8 0
-488 10 0
-488 -1 0
-487 9 0
-487 6 0
-487 19 0
-487 12 0
-487 -1 0
-486 15 0
-486 13 0
-486 12 0
-486 -1 0
-485 2 0
-485 16 0
-485 3 0
-485 -1 0
-484 13 0
-484 18 0
-484 2 0
-484 11 0
-484 -1 0
-483 19 0
-483 12 0
-483 16 0
-483 -14 0
-482 19 0
-482 3 0
-482 12 0
-482 20 0
-482 -14 0
-481 4 0
-481 9 0
-481 5 0
-481 11 0
-481 -14 0
-480 2 0
-480 7 0
-480 16 0
-480 1 0
-480 -14 0
-479 20 0
-479 9 0
-479 19 0
-479 1 0
-479 -14 0
-478 12 0
-478 7 0
-478 20 0
-478 18 0
-478 -14 0
-477 20 0
-477 10 0
-477 18 0
-477 16 0
-477 -14 0
-476 8 0
-476 1 0
-476 4 0
-476 2 0
-476 -14 0
-475 20 0
-475 18 0
-475 16 0
-475 3 0
-475 -14 0
-474 16 0
-474 13 0
-474 10 0
-474 -14 0
-473 14 0
-473 16 0
-473 8 0
-473 -2 0
-472 18 0
-472 12 0
-472 16 0
-472 3 0
-472 -2 0
-471 19 0
-471 11 0
-471 20 0
-471 5 0
-471 -2 0
-470 15 0
-470 19 0
-470 5 0
-470 4 0
-470 -2 0
-469 18 0
-469 20 0
-469 19 0
-469 8 0
-469 -2 0
-468 5 0
-468 18 0
-468 9 0
-468 6 0
-468 -2 0
-467 18 0
-467 11 0
-467 16 0
-467 -2 0
-466 6 0
-466 14 0
-466 5 0
-466 17 0
-466 -2 0
-465 6 0
-465 19 0
-465 17 0
-465 -2 0
-464 11 0
-464 12 0
-464 20 0
-464 4 0
-464 -2 0
-463 3 0
-463 19 0
-463 10 0
-463 9 0
-463 -5 0
-462 14 0
-462 3 0
-462 9 0
-462 11 0
-462 -5 0
-461 6 0
-461 11 0
-461 10 0
-461 -5 0
-460 17 0
-460 19 0
-460 6 0
-460 14 0
-460 -5 0
-459 13 0
-459 11 0
-459 -5 0
-458 13 0
-458 14 0
-458 16 0
-458 -5 0
-457 9 0
-457 8 0
-457 10 0
-457 -5 0
-456 17 0
-456 15 0
-456 20 0
-456 -5 0
-455 12 0
-455 11 0
-455 1 0
-455 -5 0
-454 17 0
-454 20 0
-454 12 0
-454 14 0
-454 -5 0
-453 7 0
-453 8 0
-453 19 0
-453 20 0
-453 -11 0
-452 9 0
-452 10 0
-452 16 0
-452 -11 0
-451 6 0
-451 12 0
-451 3 0
-451 -11 0
-450 15 0
-450 17 0
-450 7 0
-450 10 0
-450 -11 0
-449 9 0
-449 7 0
-449 5 0
-449 2 0
-449 -11 0
-448 14 0
-448 4 0
-448 18 0
-448 -11 0
-447 15 0
-447 3 0
-447 12 0
-447 14 0
-447 -11 0
-446 12 0
-446 13 0
-446 19 0
-446 3 0
-446 -11 0
-445 10 0
-445 12 0
-445 14 0
-445 4 0
-445 -11 0
-444 17 0
-444 6 0
-444 10 0
-444 -11 0
-443 15 0
-443 10 0
-443 18 0
-443 5 0
-443 -12 0
-442 13 0
-442 17 0
-442 20 0
-442 16 0
-442 -12 0
-441 6 0
-441 -12 0
-440 3 0
-440 8 0
-440 6 0
-440 1 0
-440 -12 0
-439 10 0
-439 19 0
-439 1 0
-439 6 0
-439 -12 0
-438 7 0
-438 6 0
-438 18 0
-438 17 0
-438 -12 0
-437 17 0
-437 18 0
-437 11 0
-437 9 0
-437 -12 0
-436 9 0
-436 7 0
-436 6 0
-436 -12 0
-435 17 0
-435 14 0
-435 3 0
-435 1 0
-435 -12 0
-434 8 0
-434 13 0
-434 11 0
-434 5 0
-434 -12 0
-433 11 0
-433 7 0
-433 16 0
-433 15 0
-433 -6 0
-432 9 0
-432 2 0
-432 13 0
-432 3 0
-432 -6 0
-431 3 0
-431 8 0
-431 18 0
-431 11 0
-431 -6 0
-430 5 0
-430 12 0
-430 18 0
-430 1 0
-430 -6 0
-429 12 0
-429 11 0
-429 4 0
-429 13 0
-429 -6 0
-428 18 0
-428 5 0
-428 20 0
-428 17 0
-428 -6 0
-427 13 0
-427 5 0
-427 17 0
-427 7 0
-427 -6 0
-426 14 0
-426 18 0
-426 19 0
-426 12 0
-426 -6 0
-425 17 0
-425 4 0
-425 20 0
-425 -6 0
-424 12 0
-424 10 0
-424 13 0
-424 15 0
-424 -6 0
-423 19 0
-423 5 0
-423 11 0
-423 14 0
-423 -9 0
-422 4 0
-422 11 0
-422 3 0
-422 19 0
-422 -9 0
-421 3 0
-421 2 0
-421 17 0
-421 -9 0
-420 15 0
-420 18 0
-420 16 0
-420 5 0
-420 -9 0
-419 11 0
-419 10 0
-419 19 0
-419 -9 0
-418 16 0
-418 3 0
-418 20 0
-418 1 0
-418 -9 0
-417 13 0
-417 19 0
-417 11 0
-417 15 0
-417 -9 0
-416 16 0
-416 5 0
-416 17 0
-416 19 0
-416 -9 0
-415 10 0
-415 8 0
-415 14 0
-415 -9 0
-414 6 0
-414 19 0
-414 12 0
-414 4 0
-414 -9 0
-413 20 0
-413 15 0
-413 9 0
-413 7 0
-413 -3 0
-412 16 0
-412 1 0
-412 2 0
-412 4 0
-412 -3 0
-411 5 0
-411 20 0
-411 19 0
-411 -3 0
-410 19 0
-410 8 0
-410 16 0
-410 12 0
-410 -3 0
-409 7 0
-409 14 0
-409 1 0
-409 -3 0
-408 8 0
-408 9 0
-408 18 0
-408 11 0
-408 -3 0
-407 9 0
-407 17 0
-407 16 0
-407 12 0
-407 -3 0
-406 10 0
-406 13 0
-406 7 0
-406 12 0
-406 -3 0
-405 12 0
-405 14 0
-405 -3 0
-404 11 0
-404 17 0
-404 4 0
-404 10 0
-404 -3 0
-403 12 0
-403 2 0
-403 1 0
-403 13 0
-403 -7 0
-402 19 0
-402 16 0
-402 4 0
-402 20 0
-402 -7 0
-401 18 0
-401 5 0
-401 4 0
-401 8 0
-401 -7 0
-400 9 0
-400 14 0
-400 4 0
-400 16 0
-400 -7 0
-399 12 0
-399 9 0
-399 8 0
-399 20 0
-399 -7 0
-398 5 0
-398 13 0
-398 3 0
-398 9 0
-398 -7 0
-397 13 0
-397 8 0
-397 3 0
-397 -7 0
-396 1 0
-396 15 0
-396 19 0
-396 -7 0
-395 17 0
-395 19 0
-395 5 0
-395 11 0
-395 -7 0
-394 10 0
-394 5 0
-394 6 0
-394 20 0
-394 -7 0
-393 14 0
-393 10 0
-393 2 0
-393 7 0
-393 -17 0
-392 20 0
-392 6 0
-392 10 0
-392 11 0
-392 -17 0
-391 16 0
-391 18 0
-391 2 0
-391 11 0
-391 -17 0
-390 9 0
-390 1 0
-390 12 0
-390 -17 0
-389 9 0
-389 19 0
-389 11 0
-389 6 0
-389 -17 0
-388 4 0
-388 20 0
-388 14 0
-388 8 0
-388 -17 0
-387 16 0
-387 5 0
-387 13 0
-387 15 0
-387 -17 0
-386 13 0
-386 15 0
-386 2 0
-386 1 0
-386 -17 0
-385 4 0
-385 9 0
-385 14 0
-385 11 0
-385 -17 0
-384 8 0
-384 16 0
-384 20 0
-384 19 0
-384 -17 0
-383 3 0
-383 5 0
-383 6 0
-383 20 0
-383 -13 0
-382 4 0
-382 15 0
-382 10 0
-382 6 0
-382 -13 0
-381 16 0
-381 4 0
-381 19 0
-381 9 0
-381 -13 0
-380 5 0
-380 20 0
-380 6 0
-380 10 0
-380 -13 0
-379 20 0
-379 18 0
-379 15 0
-379 5 0
-379 -13 0
-378 9 0
-378 6 0
-378 11 0
-378 4 0
-378 -13 0
-377 10 0
-377 17 0
-377 5 0
-377 11 0
-377 -13 0
-376 11 0
-376 8 0
-376 4 0
-376 -13 0
-375 19 0
-375 1 0
-375 7 0
-375 6 0
-375 -13 0
-374 8 0
-374 5 0
-374 3 0
-374 2 0
-374 -13 0
-373 10 0
-373 14 0
-373 5 0
-373 11 0
-373 -15 0
-372 12 0
-372 20 0
-372 5 0
-372 9 0
-372 -15 0
-371 2 0
-371 3 0
-371 6 0
-371 1 0
-371 -15 0
-370 19 0
-370 1 0
-370 10 0
-370 16 0
-370 -15 0
-369 2 0
-369 16 0
-369 1 0
-369 9 0
-369 -15 0
-368 5 0
-368 10 0
-368 12 0
-368 18 0
-368 -15 0
-367 14 0
-367 2 0
-367 6 0
-367 19 0
-367 -15 0
-366 11 0
-366 2 0
-366 3 0
-366 16 0
-366 -15 0
-365 17 0
-365 3 0
-365 10 0
-365 -15 0
-364 12 0
-364 17 0
-364 7 0
-364 4 0
-364 -15 0
-363 -8 0
-363 -10 0
-363 -11 0
-362 -18 0
-362 -9 0
-362 -1 0
-362 -5 0
-361 -15 0
-361 -19 0
-361 -16 0
-361 -2 0
-360 -14 0
-360 -17 0
-360 -2 0
-360 -7 0
-359 -13 0
-359 -3 0
-359 -4 0
-359 -10 0
-358 -16 0
-358 -2 0
-358 -19 0
-358 -6 0
-357 -15 0
-357 -6 0
-357 -3 0
-357 -11 0
-356 -11 0
-356 -20 0
-356 -8 0
-356 -7 0
-355 -16 0
-355 -15 0
-355 -7 0
-354 -6 0
-354 -1 0
-354 -19 0
-354 -12 0
-353 -6 0
-353 -20 0
-353 -10 0
-352 -12 0
-352 -20 0
-352 -5 0
-352 -4 0
-351 -13 0
-351 -16 0
-351 -20 0
-351 -9 0
-350 -9 0
-350 -10 0
-350 -1 0
-350 -8 0
-349 -3 0
-349 -4 0
-349 -7 0
-349 -19 0
-348 -17 0
-348 -9 0
-348 -4 0
-348 -10 0
-347 -6 0
-347 -13 0
-347 -19 0
-346 -18 0
-346 -7 0
-346 -11 0
-346 -19 0
-345 -11 0
-345 -16 0
-345 -15 0
-345 -20 0
-344 -15 0
-344 -2 0
-344 -8 0
-343 -9 0
-343 -10 0
-343 -20 0
-343 -18 0
-342 -4 0
-342 -20 0
-342 -8 0
-342 -17 0
-341 -17 0
-341 -6 0
-341 -20 0
-341 -3 0
-340 -1 0
-340 -17 0
-340 -14 0
-340 -12 0
-339 -11 0
-339 -13 0
-339 -20 0
-338 -3 0
-338 -9 0
-338 -2 0
-338 -19 0
-337 -13 0
-337 -2 0
-337 -4 0
-337 -5 0
-336 -5 0
-336 -1 0
-336 -11 0
-336 -7 0
-335 -14 0
-335 -3 0
-335 -7 0
-335 -20 0
-334 -5 0
-334 -6 0
-334 -18 0
-334 -1 0
-333 -15 0
-333 -16 0
-333 -4 0
-333 -13 0
-332 -6 0
-332 -20 0
-332 -11 0
-332 -16 0
-331 -10 0
-331 -9 0
-331 -18 0
-331 -14 0
-330 -14 0
-330 -2 0
-330 -3 0
-330 -13 0
-329 -5 0
-329 -2 0
-329 -14 0
-329 -10 0
-328 -14 0
-328 -18 0
-328 -17 0
-328 -2 0
-327 -1 0
-327 -19 0
-327 -12 0
-327 -2 0
-326 -11 0
-326 -12 0
-326 -7 0
-326 -5 0
-325 -7 0
-325 -11 0
-325 -10 0
-325 -4 0
-324 -9 0
-324 -16 0
-324 -13 0
-324 -3 0
-323 -13 0
-323 -16 0
-323 -19 0
-322 -14 0
-322 -11 0
-322 -7 0
-322 -5 0
-321 -18 0
-321 -8 0
-321 -11 0
-320 -17 0
-320 -10 0
-320 -2 0
-320 -7 0
-319 -1 0
-319 -10 0
-319 -8 0
-319 -5 0
-318 -9 0
-318 -6 0
-318 -4 0
-317 -16 0
-317 -9 0
-317 -5 0
-316 -5 0
-316 -20 0
-316 -19 0
-316 -14 0
-315 -6 0
-315 -4 0
-315 -19 0
-315 -10 0
-314 -8 0
-314 -4 0
-314 -16 0
-313 -15 0
-313 -1 0
-313 -17 0
-313 -14 0
-312 -14 0
-312 -1 0
-312 -7 0
-311 -14 0
-311 -6 0
-311 -13 0
-311 -9 0
-310 -1 0
-310 -11 0
-310 -2 0
-310 -20 0
-309 -17 0
-309 -8 0
-309 -19 0
-309 -1 0
-308 -14 0
-308 -16 0
-308 -1 0
-308 -9 0
-307 -19 0
-307 -6 0
-307 -1 0
-307 -11 0
-306 -1 0
-306 -11 0
-306 -14 0
-306 -15 0
-305 -15 0
-305 -8 0
-305 -1 0
-304 -16 0
-304 -7 0
-304 -3 0
-304 -6 0
-303 -31 -39 -28 -30 38 0
-302 -32 -33 -30 -39 38 0
-301 -25 -29 -31 -30 38 0
-300 -21 -25 -22 -31 38 0
-299 -24 -22 -27 -29 38 0
-298 -24 -22 -40 38 0
-297 -27 -31 -21 -35 38 0
-296 -37 -35 -36 -25 38 0
-295 -40 -24 -25 -36 38 0
-294 -22 -40 -21 38 0
-293 -29 -38 -31 -27 30 0
-292 -22 -29 -31 -25 30 0
-291 -31 -28 30 0
-290 -39 -21 -23 -24 30 0
-289 -33 -29 -21 30 0
-288 -28 -33 -25 -22 30 0
-287 -38 -28 -24 -40 30 0
-286 -32 -28 -25 -26 30 0
-285 -34 -39 -29 -40 30 0
-284 -37 -39 -29 30 0
-283 -37 -30 -22 -36 24 0
-282 -23 -38 -25 -22 24 0
-281 -35 -27 -38 -22 24 0
-280 -37 -30 -25 -40 24 0
-279 -28 -21 -38 -23 24 0
-278 -32 -22 -29 -33 24 0
-277 -36 -40 -23 -25 24 0
-276 -37 -31 -40 -35 24 0
-275 -34 -25 -35 -33 24 0
-274 -32 -25 -39 24 0
-273 -38 -26 -24 -39 40 0
-272 -34 -21 -28 -38 40 0
-271 -23 -37 -22 40 0
-270 -23 -28 -36 -31 40 0
-269 -35 -29 -38 -31 40 0
-268 -22 -35 -38 40 0
-267 -25 -22 -32 -30 40 0
-266 -27 -36 -26 -35 40 0
-265 -22 -23 -37 40 0
-264 -24 -22 40 0
-263 -35 -31 -25 -21 36 0
-262 -27 -23 -33 -34 36 0
-261 -30 -25 -35 -31 36 0
-260 -24 -25 -31 -35 36 0
-259 -23 -37 -35 36 0
-258 -25 -23 -34 -28 36 0
-257 -37 -38 -21 -33 36 0
-256 -22 -39 -32 36 0
-255 -28 -33 -21 -23 36 0
-254 -39 -38 -37 36 0
-253 -40 -34 -21 -39 28 0
-252 -36 -33 -30 -24 28 0
-251 -29 -38 -32 -30 28 0
-250 -38 -25 -22 -24 28 0
-249 -36 -34 -40 28 0
-248 -37 -23 -34 28 0
-247 -29 -36 -30 -23 28 0
-246 -25 -33 28 0
-245 -37 -29 -27 -39 28 0
-244 -34 -24 -35 -30 28 0
-243 -23 -31 -40 -32 39 0
-242 -30 -28 -37 39 0
-241 -34 -38 -33 -36 39 0
-240 -34 -33 -32 -35 39 0
-239 -28 -29 -25 -27 39 0
-238 -27 -35 -30 -40 39 0
-237 -23 -35 -31 -22 39 0
-236 -25 -36 -27 -24 39 0
-235 -35 -22 -23 -36 39 0
-234 -27 -28 -29 -30 39 0
-233 -39 -32 -35 21 0
-232 -32 -37 -28 -24 21 0
-231 -26 -24 -30 -39 21 0
-230 -37 -22 -34 21 0
-229 -25 -34 -28 21 0
-228 -36 -27 -28 -30 21 0
-227 -29 -26 -39 -32 21 0
-226 -35 -33 -32 21 0
-225 -22 -36 -23 21 0
-224 -33 -38 -22 -31 21 0
-223 -39 -32 -36 34 0
-222 -39 -23 -32 -40 34 0
-221 -24 -29 -25 -31 34 0
-220 -22 -27 -36 -21 34 0
-219 -40 -29 -39 -21 34 0
-218 -32 -27 -40 -38 34 0
-217 -40 -30 -38 -36 34 0
-216 -28 -21 -24 -22 34 0
-215 -40 -38 -36 -23 34 0
-214 -36 -33 -30 34 0
-213 -34 -36 -28 22 0
-212 -38 -32 -36 -23 22 0
-211 -39 -31 -40 -25 22 0
-210 -35 -39 -25 -24 22 0
-209 -38 -40 -39 -28 22 0
-208 -25 -38 -29 -26 22 0
-207 -38 -31 -36 22 0
-206 -26 -34 -25 -37 22 0
-205 -26 -39 -37 22 0
-204 -31 -32 -40 -24 22 0
-203 -23 -39 -30 -29 25 0
-202 -34 -23 -29 -31 25 0
-201 -26 -31 -30 25 0
-200 -37 -39 -26 -34 25 0
-199 -33 -31 25 0
-198 -33 -34 -36 25 0
-197 -29 -28 -30 25 0
-196 -37 -35 -40 25 0
-195 -32 -31 -21 25 0
-194 -37 -40 -32 -34 25 0
-193 -27 -28 -39 -40 31 0
-192 -29 -30 -36 31 0
-191 -26 -32 -23 31 0
-190 -35 -37 -27 -30 31 0
-189 -29 -27 -25 -22 31 0
-188 -34 -24 -38 31 0
-187 -35 -23 -32 -34 31 0
-186 -32 -33 -39 -23 31 0
-185 -30 -32 -34 -24 31 0
-184 -37 -26 -30 31 0
-183 -35 -30 -38 -25 32 0
-182 -33 -37 -40 -36 32 0
-181 -26 32 0
-180 -23 -28 -26 -21 32 0
-179 -30 -39 -21 -26 32 0
-178 -27 -26 -38 -37 32 0
-177 -37 -38 -31 -29 32 0
-176 -29 -27 -26 32 0
-175 -37 -34 -23 -21 32 0
-174 -28 -33 -31 -25 32 0
-173 -31 -27 -36 -35 26 0
-172 -29 -22 -33 -23 26 0
-171 -23 -28 -38 -31 26 0
-170 -25 -32 -38 -21 26 0
-169 -32 -31 -24 -33 26 0
-168 -38 -25 -40 -37 26 0
-167 -33 -25 -37 -27 26 0
-166 -34 -38 -39 -32 26 0
-165 -37 -24 -40 26 0
-164 -32 -30 -33 -35 26 0
-163 -39 -25 -31 -34 29 0
-162 -24 -31 -23 -39 29 0
-161 -23 -22 -37 29 0
-160 -35 -38 -36 -25 29 0
-159 -31 -30 -39 29 0
-158 -36 -23 -40 -21 29 0
-157 -33 -39 -31 -35 29 0
-156 -36 -25 -37 -39 29 0
-155 -30 -28 -34 29 0
-154 -26 -39 -32 -24 29 0
-153 -40 -35 -29 -27 23 0
-152 -36 -21 -22 -24 23 0
-151 -25 -40 -39 23 0
-150 -39 -28 -36 -32 23 0
-149 -27 -34 -21 23 0
-148 -28 -29 -38 -31 23 0
-147 -29 -37 -36 -32 23 0
-146 -30 -33 -27 -32 23 0
-145 -32 -34 23 0
-144 -31 -37 -24 -30 23 0
-143 -32 -22 -21 -33 27 0
-142 -39 -36 -24 -40 27 0
-141 -38 -25 -24 -28 27 0
-140 -29 -34 -24 -36 27 0
-139 -32 -29 -28 -40 27 0
-138 -25 -33 -23 -29 27 0
-137 -33 -28 -23 27 0
-136 -21 -35 -39 27 0
-135 -37 -39 -25 -31 27 0
-134 -30 -25 -26 -40 27 0
-133 -34 -30 -22 -27 37 0
-132 -40 -26 -30 -31 37 0
-131 -36 -38 -22 -31 37 0
-130 -29 -21 -32 37 0
-129 -29 -39 -31 -26 37 0
-128 -24 -40 -34 -28 37 0
-127 -36 -25 -33 -35 37 0
-126 -33 -35 -22 -21 37 0
-125 -24 -29 -34 -31 37 0
-124 -28 -36 -40 -39 37 0
-123 -23 -25 -26 -40 33 0
-122 -24 -35 -30 -26 33 0
-121 -36 -24 -39 -29 33 0
-120 -25 -40 -26 -30 33 0
-119 -40 -38 -35 -25 33 0
-118 -29 -26 -31 -24 33 0
-117 -30 -37 -25 -31 33 0
-116 -31 -28 -24 33 0
-115 -39 -21 -27 -26 33 0
-114 -28 -25 -23 -22 33 0
-113 -30 -34 -25 -31 35 0
-112 -32 -40 -25 -29 35 0
-111 -22 -23 -26 -21 35 0
-110 -39 -21 -30 -36 35 0
-109 -22 -36 -21 -29 35 0
-108 -25 -30 -32 -38 35 0
-107 -34 -22 -26 -39 35 0
-106 -31 -22 -23 -36 35 0
-105 -37 -23 -30 35 0
-104 -32 -37 -27 -24 35 0
-103 28 30 31 0
-102 38 29 21 25 0
-101 35 39 36 22 0
-100 34 37 22 27 0
-99 33 23 24 30 0
-98 36 22 39 26 0
-97 35 26 23 31 0
-96 31 40 28 27 0
-95 36 35 27 0
-94 26 21 39 32 0
-93 26 40 30 0
-92 32 40 25 24 0
-91 33 36 40 29 0
-90 29 30 21 28 0
-89 23 24 27 39 0
-88 37 29 24 30 0
-87 26 33 39 0
-86 38 27 31 39 0
-85 31 36 35 40 0
-84 35 22 28 0
-83 29 30 40 38 0
-82 24 40 28 37 0
-81 37 26 40 23 0
-80 21 37 34 32 0
-79 31 33 40 0
-78 23 29 22 39 0
-77 33 22 24 25 0
-76 25 21 31 27 0
-75 34 23 27 40 0
-74 25 26 38 21 0
-73 35 36 24 33 0
-72 26 40 31 36 0
-71 30 29 38 34 0
-70 34 22 23 33 0
-69 25 22 34 30 0
-68 34 38 37 22 0
-67 21 39 32 22 0
-66 31 32 27 25 0
-65 27 31 30 24 0
-64 29 36 33 23 0
-63 33 36 39 0
-62 34 31 27 25 0
-61 38 28 31 0
-60 37 30 22 27 0
-59 21 30 28 25 0
-58 29 26 24 0
-57 36 29 25 0
-56 25 40 39 34 0
-55 26 24 39 30 0
-54 28 24 36 0
-53 35 21 37 34 0
-52 34 21 27 0
-51 34 26 33 29 0
-50 21 31 22 40 0
-49 37 28 39 21 0
-48 34 36 21 29 0
-47 39 26 21 31 0
-46 21 31 34 35 0
-45 35 28 21 0
-44 36 27 23 26 0
-43 303 0
-43 302 0
-43 301 0
-43 300 0
-43 299 0
-43 298 0
-43 297 0
-43 296 0
-43 295 0
-43 294 0
-43 293 0
-43 292 0
-43 291 0
-43 290 0
-43 289 0
-43 288 0
-43 287 0
-43 286 0
-43 285 0
-43 284 0
-43 283 0
-43 282 0
-43 281 0
-43 280 0
-43 279 0
-43 278 0
-43 277 0
-43 276 0
-43 275 0
-43 274 0
-43 273 0
-43 272 0
-43 271 0
-43 270 0
-43 269 0
-43 268 0
-43 267 0
-43 266 0
-43 265 0
-43 264 0
-43 263 0
-43 262 0
-43 261 0
-43 260 0
-43 259 0
-43 258 0
-43 257 0
-43 256 0
-43 255 0
-43 254 0
-43 253 0
-43 252 0
-43 251 0
-43 250 0
-43 249 0
-43 248 0
-43 247 0
-43 246 0
-43 245 0
-43 244 0
-43 243 0
-43 242 0
-43 241 0
-43 240 0
-43 239 0
-43 238 0
-43 237 0
-43 236 0
-43 235 0
-43 234 0
-43 233 0
-43 232 0
-43 231 0
-43 230 0
-43 229 0
-43 228 0
-43 227 0
-43 226 0
-43 225 0
-43 224 0
-43 223 0
-43 222 0
-43 221 0
-43 220 0
-43 219 0
-43 218 0
-43 217 0
-43 216 0
-43 215 0
-43 214 0
-43 213 0
-43 212 0
-43 211 0
-43 210 0
-43 209 0
-43 208 0
-43 207 0
-43 206 0
-43 205 0
-43 204 0
-43 203 0
-43 202 0
-43 201 0
-43 200 0
-43 199 0
-43 198 0
-43 197 0
-43 196 0
-43 195 0
-43 194 0
-43 193 0
-43 192 0
-43 191 0
-43 190 0
-43 189 0
-43 188 0
-43 187 0
-43 186 0
-43 185 0
-43 184 0
-43 183 0
-43 182 0
-43 181 0
-43 180 0
-43 179 0
-43 178 0
-43 177 0
-43 176 0
-43 175 0
-43 174 0
-43 173 0
-43 172 0
-43 171 0
-43 170 0
-43 169 0
-43 168 0
-43 167 0
-43 166 0
-43 165 0
-43 164 0
-43 163 0
-43 162 0
-43 161 0
-43 160 0
-43 159 0
-43 158 0
-43 157 0
-43 156 0
-43 155 0
-43 154 0
-43 153 0
-43 152 0
-43 151 0
-43 150 0
-43 149 0
-43 148 0
-43 147 0
-43 146 0
-43 145 0
-43 144 0
-43 143 0
-43 142 0
-43 141 0
-43 140 0
-43 139 0
-43 138 0
-43 137 0
-43 136 0
-43 135 0
-43 134 0
-43 133 0
-43 132 0
-43 131 0
-43 130 0
-43 129 0
-43 128 0
-43 127 0
-43 126 0
-43 125 0
-43 124 0
-43 123 0
-43 122 0
-43 121 0
-43 120 0
-43 119 0
-43 118 0
-43 117 0
-43 116 0
-43 115 0
-43 114 0
-43 113 0
-43 112 0
-43 111 0
-43 110 0
-43 109 0
-43 108 0
-43 107 0
-43 106 0
-43 105 0
-43 104 0
-43 103 0
-43 102 0
-43 101 0
-43 100 0
-43 99 0
-43 98 0
-43 97 0
-43 96 0
-43 95 0
-43 94 0
-43 93 0
-43 92 0
-43 91 0
-43 90 0
-43 89 0
-43 88 0
-43 87 0
-43 86 0
-43 85 0
-43 84 0
-43 83 0
-43 82 0
-43 81 0
-43 80 0
-43 79 0
-43 78 0
-43 77 0
-43 76 0
-43 75 0
-43 74 0
-43 73 0
-43 72 0
-43 71 0
-43 70 0
-43 69 0
-43 68 0
-43 67 0
-43 66 0
-43 65 0
-43 64 0
-43 63 0
-43 62 0
-43 61 0
-43 60 0
-43 59 0
-43 58 0
-43 57 0
-43 56 0
-43 55 0
-43 54 0
-43 53 0
-43 52 0
-43 51 0
-43 50 0
-43 49 0
-43 48 0
-43 47 0
-43 46 0
-43 45 0
-43 44 0
-42 563 562 561 560 559 558 557 556 555 554 553 552 551 550 549 548 547 546 545 544 543 542 541 540 539 538 537 536 535 534 533 532 531 530 529 528 527 526 525 524 523 522 521 520 519 518 517 516 515 514 513 512 511 510 509 508 507 506 505 504 503 502 501 500 499 498 497 496 495 494 493 492 491 490 489 488 487 486 485 484 483 482 481 480 479 478 477 476 475 474 473 472 471 470 469 468 467 466 465 464 463 462 461 460 459 458 457 456 455 454 453 452 451 450 449 448 447 446 445 444 443 442 441 440 439 438 437 436 435 434 433 432 431 430 429 428 427 426 425 424 423 422 421 420 419 418 417 416 415 414 413 412 411 410 409 408 407 406 405 404 403 402 401 400 399 398 397 396 395 394 393 392 391 390 389 388 387 386 385 384 383 382 381 380 379 378 377 376 375 374 373 372 371 370 369 368 367 366 365 364 363 362 361 360 359 358 357 356 355 354 353 352 351 350 349 348 347 346 345 344 343 342 341 340 339 338 337 336 335 334 333 332 331 330 329 328 327 326 325 324 323 322 321 320 319 318 317 316 315 314 313 312 311 310 309 308 307 306 305 304 43 0
-41 624 0
-41 623 0
-41 622 0
-41 621 0
-41 620 0
-41 619 0
-41 618 0
-41 617 0
-41 616 0
-41 615 0
-41 614 0
-41 613 0
-41 612 0
-41 611 0
-41 610 0
-41 609 0
-41 608 0
-41 607 0
-41 606 0
-41 605 0
-41 564 0
-41 42 0
41 -18 -10 0

